ilp_joint/output/regeneration_ilp.lp
Maximize
  0.00435369034181429 Z_20_0_0 + 0.00196668421077021 Z_20_0_1
   + 0.6267603814451433 Z_20_0_2 + 0.0154192625353338 Z_20_0_3
   + 0.2514999814669386 Z_20_0_4
Subject To
 constraint1_200: Z_20_0_0 + Z_20_0_1 + Z_20_0_2 + Z_20_0_3 + Z_20_0_4
   <= 1
 constraint2_200: Z_20_0_0 <= 1
 constraint2_201: Z_20_0_1 <= 1
 constraint2_202: Z_20_0_2 <= 1
 constraint2_203: Z_20_0_3 <= 1
Bounds
Binaries
 Z_20_0_0 Z_20_0_1 Z_20_0_2 Z_20_0_3 Z_20_0_4
End
