ilp_joint/output/regeneration_ilp.sol
# Solution for model regeneration_srl_ilp
# Objective value = 6.2676038144514334e-01
Z_20_0_0 0
Z_20_0_1 0
Z_20_0_2 1
Z_20_0_3 0
Z_20_0_4 0
